50, 940725
13195, 2947
12854, 3020
12711, 2949
12558, 3032
13541, 2995
12641, 3128
12786, 2996
13151, 2956
13228, 3055
13437, 3194
12867, 3177
13331, 2937
12868, 3143
13109, 2974
12652, 3127
13448, 3107
13405, 2942
13499, 3197
12880, 3166
13455, 2975
12895, 3218
13028, 2974
12909, 3171
12673, 2942
12997, 2936
918296, 146650
906248, 143717
894723, 140784
883197, 137851
870660, 134918
858295, 131985
845977, 129052
834558, 126119
822455, 123186
810793, 120253
798472, 117320
786194, 114387
773929, 111454
761503, 108521
749381, 105588
736850, 102655
725722, 99722
713734, 96789
701316, 93856
688852, 90923
676477, 87990
664047, 85057
651842, 82124
639443, 79191
627029, 76258
